Maximize
F - f1 - f2

Subject to
F - 10.0y45 - 20.0y230 - 10.0y295 - 15.0y15 - 20.0y12 - 20.0y33 - 15.0y150 - 20.0y75 - 20.0y7 - 20.0y162 - 15.0y141 - 10.0y293 - 15.0y68 - 15.0y175 - 15.0y62 - 20.0y232 - 15.0y111 - 10.0y266 - 20.0y282 - 20.0y19 = 0
f1 - 0.005971s45 - 0.005971s230 - 0.005971s295 - 0.005971s15 - 0.005971s12 - 0.005971s33 - 0.005971s150 - 0.005971s75 - 0.005971s7 - 0.005971s162 - 0.005971s141 - 0.005971s293 - 0.005971s68 - 0.005971s175 - 0.005971s62 - 0.005971s232 - 0.005971s111 - 0.005971s266 - 0.005971s282 - 0.005971s19  = 0
f2 - 1.26y45 - 1.36y230 - 1.37y295 - 1.43y15 - 1.40y12 - 1.06y33 - 1.42y150 - 1.07y75 - 1.58y7 - 0.99y162 - 1.16y141 - 1.64y293 - 1.68y68 - 1.72y175 - 1.20y62 - 1.75y232 - 1.77y111 - 1.19y266 - 1.22y282 - 1.25y19 = 0

x176x45x1 + x176x230x1 + x176x295x1 + x176x15x1 + x176x12x1 + x176x33x1 + x176x75x1 + x176x7x1 + x176x141x1 + x176x293x1 + x176x68x1 + x176x232x1 + x176x111x1 + x176x282x1 
<= 1
x88x45x1 + x88x230x1 + x88x295x1 + x88x15x1 + x88x12x1 + x88x33x1 + x88x75x1 + x88x7x1 + x88x141x1 + x88x293x1 + x88x68x1 + x88x232x1 + x88x111x1 + x88x282x1 
<= 1
x66x45x1 + x66x230x1 + x66x295x1 + x66x15x1 + x66x12x1 + x66x33x1 + x66x75x1 + x66x7x1 + x66x141x1 + x66x293x1 + x66x68x1 + x66x232x1 + x66x111x1 + x66x282x1 
<= 1
x251x282x1 
<= 1
x187x45x1 + x187x230x1 + x187x295x1 + x187x15x1 + x187x12x1 + x187x33x1 + x187x75x1 + x187x7x1 + x187x141x1 + x187x293x1 + x187x68x1 + x187x232x1 + x187x111x1 + x187x282x1 
<= 1
x226x15x1 + x226x12x1 + x226x33x1 + x226x75x1 + x226x7x1 + x226x141x1 + x226x293x1 + x226x68x1 + x226x232x1 + x226x111x1 + x226x282x1 
<= 1
x23x75x1 + x23x141x1 + x23x282x1 
<= 1
x16x45x2 + x16x295x2 + x16x75x2 + x16x141x2 + x16x293x2 + x16x175x2 + x16x62x2 
<= 1
x215x75x2 + x215x141x2 + x215x293x2 + x215x175x2 + x215x62x2 
<= 2
x187x45x2 + x187x295x2 + x187x75x2 + x187x141x2 + x187x293x2 + x187x175x2 + x187x62x2 
<= 1
x238x45x2 + x238x295x2 + x238x75x2 + x238x141x2 + x238x293x2 + x238x175x2 + x238x62x2 
<= 1
x251x62x3 + x251x266x3 + x251x19x3 
<= 1
x226x15x3 + x226x12x3 + x226x33x3 + x226x150x3 + x226x162x3 + x226x68x3 + x226x62x3 + x226x232x3 + x226x266x3 + x226x19x3 
<= 1
x23x162x3 + x23x62x3 + x23x266x3 + x23x19x3 
<= 1
x94x266x3 + x94x19x3 
<= 2
x176x45x1 + x88x45x1 + x66x45x1 + x187x45x1 
- x45x0x1
- x45x12x1 - x45x75x1 - x45x7x1 - x45x141x1 - x45x293x1 - x45x68x1 - x45x232x1 - x45x111x1 - x45x282x1 
= 0
x16x45x2 + x187x45x2 + x238x45x2 
- x45x0x2
- x45x75x2 - x45x141x2 - x45x293x2 - x45x175x2 - x45x62x2 
= 0


x176x230x1 + x88x230x1 + x66x230x1 + x187x230x1 
- x230x0x1
- x230x15x1 - x230x7x1 - x230x293x1 - x230x68x1 - x230x232x1 - x230x111x1 - x230x282x1 
= 0



x176x295x1 + x88x295x1 + x66x295x1 + x187x295x1 
- x295x0x1
- x295x15x1 - x295x7x1 - x295x293x1 - x295x68x1 - x295x232x1 - x295x111x1 - x295x282x1 
= 0
x16x295x2 + x187x295x2 + x238x295x2 
- x295x0x2
- x295x293x2 - x295x175x2 
= 0


x176x15x1 + x88x15x1 + x66x15x1 + x187x15x1 + x226x15x1 + x230x15x1 + x295x15x1 
- x15x0x1
- x15x7x1 - x15x293x1 - x15x68x1 - x15x232x1 - x15x111x1 - x15x282x1 
= 0

x226x15x3 
- x15x0x3
- x15x68x3 - x15x232x3 - x15x19x3 
= 0

x176x12x1 + x88x12x1 + x66x12x1 + x187x12x1 + x226x12x1 + x45x12x1 
- x12x0x1
- x12x293x1 - x12x68x1 - x12x232x1 - x12x111x1 - x12x282x1 
= 0

x226x12x3 
- x12x0x3
- x12x68x3 - x12x62x3 - x12x232x3 - x12x266x3 - x12x19x3 
= 0

x176x33x1 + x88x33x1 + x66x33x1 + x187x33x1 + x226x33x1 
- x33x0x1
- x33x75x1 - x33x141x1 - x33x282x1 
= 0

x226x33x3 
- x33x0x3
- x33x162x3 - x33x62x3 - x33x266x3 - x33x19x3 
= 0



x226x150x3 
- x150x0x3
- x150x68x3 - x150x232x3 
= 0

x176x75x1 + x88x75x1 + x66x75x1 + x187x75x1 + x226x75x1 + x23x75x1 + x45x75x1 + x33x75x1 
- x75x0x1
- x75x141x1 - x75x282x1 
= 0
x16x75x2 + x215x75x2 + x187x75x2 + x238x75x2 + x45x75x2 
- x75x0x2
- x75x141x2 - x75x62x2 
= 0


x176x7x1 + x88x7x1 + x66x7x1 + x187x7x1 + x226x7x1 + x45x7x1 + x230x7x1 + x295x7x1 + x15x7x1 
- x7x0x1
- x7x68x1 - x7x232x1 - x7x111x1 
= 0





x226x162x3 + x23x162x3 + x33x162x3 
- x162x0x3
- x162x62x3 - x162x266x3 - x162x19x3 
= 0

x176x141x1 + x88x141x1 + x66x141x1 + x187x141x1 + x226x141x1 + x23x141x1 + x45x141x1 + x33x141x1 + x75x141x1 
- x141x0x1
- x141x282x1 
= 0
x16x141x2 + x215x141x2 + x187x141x2 + x238x141x2 + x45x141x2 + x75x141x2 
- x141x0x2
- x141x62x2 
= 0


x176x293x1 + x88x293x1 + x66x293x1 + x187x293x1 + x226x293x1 + x45x293x1 + x230x293x1 + x295x293x1 + x15x293x1 + x12x293x1 
- x293x0x1
- x293x68x1 - x293x232x1 - x293x111x1 
= 0
x16x293x2 + x215x293x2 + x187x293x2 + x238x293x2 + x45x293x2 + x295x293x2 
- x293x0x2
- x293x175x2 
= 0


x176x68x1 + x88x68x1 + x66x68x1 + x187x68x1 + x226x68x1 + x45x68x1 + x230x68x1 + x295x68x1 + x15x68x1 + x12x68x1 + x7x68x1 + x293x68x1 
- x68x0x1
- x68x232x1 - x68x111x1 
= 0

x226x68x3 + x15x68x3 + x12x68x3 + x150x68x3 
- x68x0x3
- x68x232x3 
= 0


x16x175x2 + x215x175x2 + x187x175x2 + x238x175x2 + x45x175x2 + x295x175x2 + x293x175x2 
- x175x0x2

= 0



x16x62x2 + x215x62x2 + x187x62x2 + x238x62x2 + x45x62x2 + x75x62x2 + x141x62x2 
- x62x0x2

= 0
x251x62x3 + x226x62x3 + x23x62x3 + x12x62x3 + x33x62x3 + x162x62x3 
- x62x0x3
- x62x266x3 - x62x19x3 
= 0

x176x232x1 + x88x232x1 + x66x232x1 + x187x232x1 + x226x232x1 + x45x232x1 + x230x232x1 + x295x232x1 + x15x232x1 + x12x232x1 + x7x232x1 + x293x232x1 + x68x232x1 
- x232x0x1

= 0

x226x232x3 + x15x232x3 + x12x232x3 + x150x232x3 + x68x232x3 
- x232x0x3

= 0

x176x111x1 + x88x111x1 + x66x111x1 + x187x111x1 + x226x111x1 + x45x111x1 + x230x111x1 + x295x111x1 + x15x111x1 + x12x111x1 + x7x111x1 + x293x111x1 + x68x111x1 
- x111x0x1

= 0





x251x266x3 + x226x266x3 + x23x266x3 + x94x266x3 + x12x266x3 + x33x266x3 + x162x266x3 + x62x266x3 
- x266x0x3
- x266x19x3 
= 0

x176x282x1 + x88x282x1 + x66x282x1 + x251x282x1 + x187x282x1 + x226x282x1 + x23x282x1 + x45x282x1 + x230x282x1 + x295x282x1 + x15x282x1 + x12x282x1 + x33x282x1 + x75x282x1 + x141x282x1 
- x282x0x1

= 0





x251x19x3 + x226x19x3 + x23x19x3 + x94x19x3 + x15x19x3 + x12x19x3 + x33x19x3 + x162x19x3 + x62x19x3 + x266x19x3 
- x19x0x3

= 0

1y45 - x176x45x1 - x88x45x1 - x66x45x1 - x187x45x1 = 0
1y45 - x16x45x2 - x187x45x2 - x238x45x2 = 0
2y230 - x176x230x1 - x88x230x1 - x66x230x1 - x187x230x1 = 0
1y295 - x176x295x1 - x88x295x1 - x66x295x1 - x187x295x1 = 0
1y295 - x16x295x2 - x187x295x2 - x238x295x2 = 0
1y15 - x176x15x1 - x88x15x1 - x66x15x1 - x187x15x1 - x226x15x1 - x230x15x1 - x295x15x1 = 0
1y15 - x226x15x3 = 0
1y12 - x176x12x1 - x88x12x1 - x66x12x1 - x187x12x1 - x226x12x1 - x45x12x1 = 0
1y12 - x226x12x3 = 0
1y33 - x176x33x1 - x88x33x1 - x66x33x1 - x187x33x1 - x226x33x1 = 0
1y33 - x226x33x3 = 0
2y150 - x226x150x3 = 0
1y75 - x176x75x1 - x88x75x1 - x66x75x1 - x187x75x1 - x226x75x1 - x23x75x1 - x45x75x1 - x33x75x1 = 0
1y75 - x16x75x2 - x215x75x2 - x187x75x2 - x238x75x2 - x45x75x2 = 0
2y7 - x176x7x1 - x88x7x1 - x66x7x1 - x187x7x1 - x226x7x1 - x45x7x1 - x230x7x1 - x295x7x1 - x15x7x1 = 0
2y162 - x226x162x3 - x23x162x3 - x33x162x3 = 0
1y141 - x176x141x1 - x88x141x1 - x66x141x1 - x187x141x1 - x226x141x1 - x23x141x1 - x45x141x1 - x33x141x1 - x75x141x1 = 0
1y141 - x16x141x2 - x215x141x2 - x187x141x2 - x238x141x2 - x45x141x2 - x75x141x2 = 0
1y293 - x176x293x1 - x88x293x1 - x66x293x1 - x187x293x1 - x226x293x1 - x45x293x1 - x230x293x1 - x295x293x1 - x15x293x1 - x12x293x1 = 0
1y293 - x16x293x2 - x215x293x2 - x187x293x2 - x238x293x2 - x45x293x2 - x295x293x2 = 0
1y68 - x176x68x1 - x88x68x1 - x66x68x1 - x187x68x1 - x226x68x1 - x45x68x1 - x230x68x1 - x295x68x1 - x15x68x1 - x12x68x1 - x7x68x1 - x293x68x1 = 0
1y68 - x226x68x3 - x15x68x3 - x12x68x3 - x150x68x3 = 0
2y175 - x16x175x2 - x215x175x2 - x187x175x2 - x238x175x2 - x45x175x2 - x295x175x2 - x293x175x2 = 0
1y62 - x16x62x2 - x215x62x2 - x187x62x2 - x238x62x2 - x45x62x2 - x75x62x2 - x141x62x2 = 0
1y62 - x251x62x3 - x226x62x3 - x23x62x3 - x12x62x3 - x33x62x3 - x162x62x3 = 0
1y232 - x176x232x1 - x88x232x1 - x66x232x1 - x187x232x1 - x226x232x1 - x45x232x1 - x230x232x1 - x295x232x1 - x15x232x1 - x12x232x1 - x7x232x1 - x293x232x1 - x68x232x1 = 0
1y232 - x226x232x3 - x15x232x3 - x12x232x3 - x150x232x3 - x68x232x3 = 0
2y111 - x176x111x1 - x88x111x1 - x66x111x1 - x187x111x1 - x226x111x1 - x45x111x1 - x230x111x1 - x295x111x1 - x15x111x1 - x12x111x1 - x7x111x1 - x293x111x1 - x68x111x1 = 0
2y266 - x251x266x3 - x226x266x3 - x23x266x3 - x94x266x3 - x12x266x3 - x33x266x3 - x162x266x3 - x62x266x3 = 0
2y282 - x176x282x1 - x88x282x1 - x66x282x1 - x251x282x1 - x187x282x1 - x226x282x1 - x23x282x1 - x45x282x1 - x230x282x1 - x295x282x1 - x15x282x1 - x12x282x1 - x33x282x1 - x75x282x1 - x141x282x1 = 0
2y19 - x251x19x3 - x226x19x3 - x23x19x3 - x94x19x3 - x15x19x3 - x12x19x3 - x33x19x3 - x162x19x3 - x62x19x3 - x266x19x3 = 0

s176 - s45 + 7.292616z176z45z1 <= 5.28
s176 - s230 + 7.373000z176z230z1 <= 5.28
s176 - s295 + 7.387188z176z295z1 <= 5.28
s176 - s15 + 7.395715z176z15z1 <= 5.28
s176 - s12 + 7.319431z176z12z1 <= 5.28
s176 - s33 + 7.208241z176z33z1 <= 5.28
s176 - s75 + 7.206715z176z75z1 <= 5.28
s176 - s7 + 7.429343z176z7z1 <= 5.28
s176 - s141 + 7.222975z176z141z1 <= 5.28
s176 - s293 + 7.402599z176z293z1 <= 5.28
s176 - s68 + 7.418581z176z68z1 <= 5.28
s176 - s232 + 7.451026z176z232z1 <= 5.28
s176 - s111 + 7.461213z176z111z1 <= 5.28
s176 - s282 + 7.222623z176z282z1 <= 5.28
s16 - s45 + 7.681195z16z45z2 <= 6.25
s16 - s295 + 7.758935z16z295z2 <= 6.25
s16 - s75 + 7.652617z16z75z2 <= 6.25
s16 - s141 + 7.661949z16z141z2 <= 6.25
s16 - s293 + 7.777971z16z293z2 <= 6.25
s16 - s175 + 7.792874z16z175z2 <= 6.25
s16 - s62 + 7.670547z16z62z2 <= 6.25
s88 - s45 + 7.713647z88z45z1 <= 6.22
s88 - s230 + 7.772150z88z230z1 <= 6.22
s88 - s295 + 7.784240z88z295z1 <= 6.22
s88 - s15 + 7.793112z88z15z1 <= 6.22
s88 - s12 + 7.738256z88z12z1 <= 6.22
s88 - s33 + 7.683143z88z33z1 <= 6.22
s88 - s75 + 7.685809z88z75z1 <= 6.22
s88 - s7 + 7.826141z88z7z1 <= 6.22
s88 - s141 + 7.695532z88z141z1 <= 6.22
s88 - s293 + 7.806395z88z293z1 <= 6.22
s88 - s68 + 7.820418z88z68z1 <= 6.22
s88 - s232 + 7.849642z88z232z1 <= 6.22
s88 - s111 + 7.858753z88z111z1 <= 6.22
s88 - s282 + 7.709508z88z282z1 <= 6.22
s215 - s75 + 8.302246z215z75z2 <= 6.86
s215 - s141 + 8.309853z215z141z2 <= 6.86
s215 - s293 + 8.397088z215z293z2 <= 6.86
s215 - s175 + 8.411877z215z175z2 <= 6.86
s215 - s62 + 8.319557z215z62z2 <= 6.86
s66 - s45 + 7.765214z66z45z1 <= 6.29
s66 - s230 + 7.812549z66z230z1 <= 6.29
s66 - s295 + 7.823093z66z295z1 <= 6.29
s66 - s15 + 7.832169z66z15z1 <= 6.29
s66 - s12 + 7.788575z66z12z1 <= 6.29
s66 - s33 + 7.751967z66z33z1 <= 6.29
s66 - s75 + 7.755600z66z75z1 <= 6.29
s66 - s7 + 7.864579z66z7z1 <= 6.29
s66 - s141 + 7.763391z66z141z1 <= 6.29
s66 - s293 + 7.849243z66z293z1 <= 6.29
s66 - s68 + 7.862103z66z68z1 <= 6.29
s66 - s232 + 7.889219z66z232z1 <= 6.29
s66 - s111 + 7.897564z66z111z1 <= 6.29
s66 - s282 + 7.780459z66z282z1 <= 6.29
s251 - s62 + 8.426432z251z62z3 <= 6.93
s251 - s266 + 8.431819z251z266z3 <= 6.93
s251 - s282 + 8.434072z251z282z1 <= 6.93
s251 - s19 + 8.436403z251z19z3 <= 6.93
s187 - s45 + 7.812910z187z45z1 <= 6.30
s187 - s45 + 7.812910z187z45z2 <= 6.30
s187 - s230 + 7.859282z187z230z1 <= 6.30
s187 - s295 + 7.869460z187z295z1 <= 6.30
s187 - s295 + 7.869460z187z295z2 <= 6.30
s187 - s15 + 7.878578z187z15z1 <= 6.30
s187 - s12 + 7.836286z187z12z1 <= 6.30
s187 - s33 + 7.797104z187z33z1 <= 6.30
s187 - s75 + 7.800482z187z75z1 <= 6.30
s187 - s75 + 7.800482z187z75z2 <= 6.30
s187 - s7 + 7.910804z187z7z1 <= 6.30
s187 - s141 + 7.808787z187z141z1 <= 6.30
s187 - s141 + 7.808787z187z141z2 <= 6.30
s187 - s293 + 7.896399z187z293z1 <= 6.30
s187 - s293 + 7.896399z187z293z2 <= 6.30
s187 - s68 + 7.909058z187z68z1 <= 6.30
s187 - s175 + 7.911130z187z175z2 <= 6.30
s187 - s62 + 7.818072z187z62z2 <= 6.30
s187 - s232 + 7.935718z187z232z1 <= 6.30
s187 - s111 + 7.943866z187z111z1 <= 6.30
s187 - s282 + 7.825045z187z282z1 <= 6.30
s226 - s15 + 8.201972z226z15z1 <= 6.67
s226 - s15 + 8.201972z226z15z3 <= 6.67
s226 - s12 + 8.163236z226z12z1 <= 6.67
s226 - s12 + 8.163236z226z12z3 <= 6.67
s226 - s33 + 8.134541z226z33z1 <= 6.67
s226 - s33 + 8.134541z226z33z3 <= 6.67
s226 - s150 + 8.237236z226z150z3 <= 6.67
s226 - s75 + 8.138564z226z75z1 <= 6.67
s226 - s7 + 8.234078z226z7z1 <= 6.67
s226 - s162 + 8.141559z226z162z3 <= 6.67
s226 - s141 + 8.145523z226z141z1 <= 6.67
s226 - s293 + 8.220619z226z293z1 <= 6.67
s226 - s68 + 8.232969z226z68z1 <= 6.67
s226 - s68 + 8.232969z226z68z3 <= 6.67
s226 - s62 + 8.155612z226z62z3 <= 6.67
s226 - s232 + 8.259165z226z232z1 <= 6.67
s226 - s232 + 8.259165z226z232z3 <= 6.67
s226 - s111 + 8.267180z226z111z1 <= 6.67
s226 - s266 + 8.161784z226z266z3 <= 6.67
s226 - s282 + 8.163824z226z282z1 <= 6.67
s226 - s19 + 8.165945z226z19z3 <= 6.67
s23 - s75 + 8.318983z23z75z1 <= 7.18
s23 - s162 + 8.324626z23z162z3 <= 7.18
s23 - s141 + 8.327132z23z141z1 <= 7.18
s23 - s62 + 8.336308z23z62z3 <= 7.18
s23 - s266 + 8.342458z23z266z3 <= 7.18
s23 - s282 + 8.344271z23z282z1 <= 7.18
s23 - s19 + 8.346336z23z19z3 <= 7.18
s238 - s45 + 7.949666z238z45z2 <= 6.77
s238 - s295 + 8.091020z238z295z2 <= 6.77
s238 - s75 + 7.889533z238z75z2 <= 6.77
s238 - s141 + 7.895360z238z141z2 <= 6.77
s238 - s293 + 8.080010z238z293z2 <= 6.77
s238 - s175 + 8.093544z238z175z2 <= 6.77
s238 - s62 + 7.905810z238z62z2 <= 6.77
s94 - s266 + 8.535155z94z266z3 <= 7.44
s94 - s19 + 8.540398z94z19z3 <= 7.44
s45 - s12 + 9.157488z45z12z1 <= 8.13
s45 - s75 + 9.306131z45z75z1 <= 8.13
s45 - s75 + 9.306131z45z75z2 <= 8.13
s45 - s7 + 9.324366z45z7z1 <= 8.13
s45 - s141 + 9.289025z45z141z1 <= 8.13
s45 - s141 + 9.289025z45z141z2 <= 8.13
s45 - s293 + 9.265974z45z293z1 <= 8.13
s45 - s293 + 9.265974z45z293z2 <= 8.13
s45 - s68 + 9.286915z45z68z1 <= 8.13
s45 - s175 + 9.278025z45z175z2 <= 8.13
s45 - s62 + 9.302047z45z62z2 <= 8.13
s45 - s232 + 9.328886z45z232z1 <= 8.13
s45 - s111 + 9.343437z45z111z1 <= 8.13
s45 - s282 + 9.320671z45z282z1 <= 8.13
s230 - s15 + 9.187488z230z15z1 <= 8.16
s230 - s7 + 9.219999z230z7z1 <= 8.16
s230 - s293 + 9.208534z230z293z1 <= 8.16
s230 - s68 + 9.212069z230z68z1 <= 8.16
s230 - s232 + 9.238031z230z232z1 <= 8.16
s230 - s111 + 9.248944z230z111z1 <= 8.16
s230 - s282 + 9.490992z230z282z1 <= 8.16
s295 - s15 + 9.189428z295z15z1 <= 8.18
s295 - s7 + 9.222164z295z7z1 <= 8.18
s295 - s293 + 9.240370z295z293z1 <= 8.18
s295 - s293 + 9.240370z295z293z2 <= 8.18
s295 - s68 + 9.234975z295z68z1 <= 8.18
s295 - s175 + 9.247000z295z175z2 <= 8.18
s295 - s232 + 9.246667z295z232z1 <= 8.18
s295 - s111 + 9.254536z295z111z1 <= 8.18
s295 - s282 + 9.535028z295z282z1 <= 8.18
s15 - s7 + 9.253994z15z7z1 <= 8.22
s15 - s293 + 9.274975z15z293z1 <= 8.22
s15 - s68 + 9.267140z15z68z1 <= 8.22
s15 - s68 + 9.267140z15z68z3 <= 8.22
s15 - s232 + 9.277349z15z232z1 <= 8.22
s15 - s232 + 9.277349z15z232z3 <= 8.22
s15 - s111 + 9.285660z15z111z1 <= 8.22
s15 - s282 + 9.576900z15z282z1 <= 8.22
s15 - s19 + 9.571316z15z19z3 <= 8.22
s12 - s293 + 9.361753z12z293z1 <= 8.25
s12 - s68 + 9.382833z12z68z1 <= 8.25
s12 - s68 + 9.382833z12z68z3 <= 8.25
s12 - s62 + 9.441021z12z62z3 <= 8.25
s12 - s232 + 9.424992z12z232z1 <= 8.25
s12 - s232 + 9.424992z12z232z3 <= 8.25
s12 - s111 + 9.439736z12z111z1 <= 8.25
s12 - s266 + 9.464993z12z266z3 <= 8.25
s12 - s282 + 9.459231z12z282z1 <= 8.25
s12 - s19 + 9.453525z12z19z3 <= 8.25
s33 - s75 + 9.299428z33z75z1 <= 8.29
s33 - s162 + 9.334722z33z162z3 <= 8.29
s33 - s141 + 9.304907z33z141z1 <= 8.29
s33 - s62 + 9.311082z33z62z3 <= 8.29
s33 - s266 + 9.325901z33z266z3 <= 8.29
s33 - s282 + 9.323994z33z282z1 <= 8.29
s33 - s19 + 9.323334z33z19z3 <= 8.29
s150 - s68 + 9.416619z150z68z3 <= 8.30
s150 - s232 + 9.388945z150z232z3 <= 8.30
s75 - s141 + 9.350000z75z141z1 <= 8.33
s75 - s141 + 9.350000z75z141z2 <= 8.33
s75 - s62 + 9.348856z75z62z2 <= 8.33
s75 - s282 + 9.356667z75z282z1 <= 8.33
s7 - s68 + 9.398074z7z68z1 <= 8.35
s7 - s232 + 9.379814z7z232z1 <= 8.35
s7 - s111 + 9.383333z7z111z1 <= 8.35
s162 - s62 + 9.406666z162z62z3 <= 8.36
s162 - s266 + 9.389814z162z266z3 <= 8.36
s162 - s19 + 9.402164z162z19z3 <= 8.36
s141 - s62 + 9.394907z141z62z2 <= 8.38
s141 - s282 + 9.413334z141z282z1 <= 8.38
s293 - s68 + 9.421082z293z68z1 <= 8.40
s293 - s175 + 9.414907z293z175z2 <= 8.40
s293 - s232 + 9.463245z293z232z1 <= 8.40
s293 - s111 + 9.478031z293z111z1 <= 8.40
s68 - s232 + 9.472164z68z232z1 <= 8.43
s68 - s232 + 9.472164z68z232z3 <= 8.43
s68 - s111 + 9.486960z68z111z1 <= 8.43
s62 - s266 + 9.514037z62z266z3 <= 8.49
s62 - s19 + 9.504907z62z19z3 <= 8.49
s266 - s19 + 9.573334z266z19z3 <= 8.56

x176x45x1 - 1z176z45z1 <= 0
x176x230x1 - 2z176z230z1 <= 0
x176x295x1 - 1z176z295z1 <= 0
x176x15x1 - 1z176z15z1 <= 0
x176x12x1 - 1z176z12z1 <= 0
x176x33x1 - 1z176z33z1 <= 0
x176x75x1 - 1z176z75z1 <= 0
x176x7x1 - 2z176z7z1 <= 0
x176x141x1 - 1z176z141z1 <= 0
x176x293x1 - 1z176z293z1 <= 0
x176x68x1 - 1z176z68z1 <= 0
x176x232x1 - 1z176z232z1 <= 0
x176x111x1 - 2z176z111z1 <= 0
x176x282x1 - 2z176z282z1 <= 0
x16x45x2 - 1z16z45z2 <= 0
x16x295x2 - 1z16z295z2 <= 0
x16x75x2 - 1z16z75z2 <= 0
x16x141x2 - 1z16z141z2 <= 0
x16x293x2 - 1z16z293z2 <= 0
x16x175x2 - 2z16z175z2 <= 0
x16x62x2 - 1z16z62z2 <= 0
x88x45x1 - 1z88z45z1 <= 0
x88x230x1 - 2z88z230z1 <= 0
x88x295x1 - 1z88z295z1 <= 0
x88x15x1 - 1z88z15z1 <= 0
x88x12x1 - 1z88z12z1 <= 0
x88x33x1 - 1z88z33z1 <= 0
x88x75x1 - 1z88z75z1 <= 0
x88x7x1 - 2z88z7z1 <= 0
x88x141x1 - 1z88z141z1 <= 0
x88x293x1 - 1z88z293z1 <= 0
x88x68x1 - 1z88z68z1 <= 0
x88x232x1 - 1z88z232z1 <= 0
x88x111x1 - 2z88z111z1 <= 0
x88x282x1 - 2z88z282z1 <= 0
x215x75x2 - 1z215z75z2 <= 0
x215x141x2 - 1z215z141z2 <= 0
x215x293x2 - 1z215z293z2 <= 0
x215x175x2 - 2z215z175z2 <= 0
x215x62x2 - 1z215z62z2 <= 0
x66x45x1 - 1z66z45z1 <= 0
x66x230x1 - 2z66z230z1 <= 0
x66x295x1 - 1z66z295z1 <= 0
x66x15x1 - 1z66z15z1 <= 0
x66x12x1 - 1z66z12z1 <= 0
x66x33x1 - 1z66z33z1 <= 0
x66x75x1 - 1z66z75z1 <= 0
x66x7x1 - 2z66z7z1 <= 0
x66x141x1 - 1z66z141z1 <= 0
x66x293x1 - 1z66z293z1 <= 0
x66x68x1 - 1z66z68z1 <= 0
x66x232x1 - 1z66z232z1 <= 0
x66x111x1 - 2z66z111z1 <= 0
x66x282x1 - 2z66z282z1 <= 0
x251x62x3 - 1z251z62z3 <= 0
x251x266x3 - 2z251z266z3 <= 0
x251x282x1 - 2z251z282z1 <= 0
x251x19x3 - 2z251z19z3 <= 0
x187x45x1 - 1z187z45z1 <= 0
x187x45x2 - 1z187z45z2 <= 0
x187x230x1 - 2z187z230z1 <= 0
x187x295x1 - 1z187z295z1 <= 0
x187x295x2 - 1z187z295z2 <= 0
x187x15x1 - 1z187z15z1 <= 0
x187x12x1 - 1z187z12z1 <= 0
x187x33x1 - 1z187z33z1 <= 0
x187x75x1 - 1z187z75z1 <= 0
x187x75x2 - 1z187z75z2 <= 0
x187x7x1 - 2z187z7z1 <= 0
x187x141x1 - 1z187z141z1 <= 0
x187x141x2 - 1z187z141z2 <= 0
x187x293x1 - 1z187z293z1 <= 0
x187x293x2 - 1z187z293z2 <= 0
x187x68x1 - 1z187z68z1 <= 0
x187x175x2 - 2z187z175z2 <= 0
x187x62x2 - 1z187z62z2 <= 0
x187x232x1 - 1z187z232z1 <= 0
x187x111x1 - 2z187z111z1 <= 0
x187x282x1 - 2z187z282z1 <= 0
x226x15x1 - 1z226z15z1 <= 0
x226x15x3 - 1z226z15z3 <= 0
x226x12x1 - 1z226z12z1 <= 0
x226x12x3 - 1z226z12z3 <= 0
x226x33x1 - 1z226z33z1 <= 0
x226x33x3 - 1z226z33z3 <= 0
x226x150x3 - 2z226z150z3 <= 0
x226x75x1 - 1z226z75z1 <= 0
x226x7x1 - 2z226z7z1 <= 0
x226x162x3 - 2z226z162z3 <= 0
x226x141x1 - 1z226z141z1 <= 0
x226x293x1 - 1z226z293z1 <= 0
x226x68x1 - 1z226z68z1 <= 0
x226x68x3 - 1z226z68z3 <= 0
x226x62x3 - 1z226z62z3 <= 0
x226x232x1 - 1z226z232z1 <= 0
x226x232x3 - 1z226z232z3 <= 0
x226x111x1 - 2z226z111z1 <= 0
x226x266x3 - 2z226z266z3 <= 0
x226x282x1 - 2z226z282z1 <= 0
x226x19x3 - 2z226z19z3 <= 0
x23x75x1 - 1z23z75z1 <= 0
x23x162x3 - 2z23z162z3 <= 0
x23x141x1 - 1z23z141z1 <= 0
x23x62x3 - 1z23z62z3 <= 0
x23x266x3 - 2z23z266z3 <= 0
x23x282x1 - 2z23z282z1 <= 0
x23x19x3 - 2z23z19z3 <= 0
x238x45x2 - 1z238z45z2 <= 0
x238x295x2 - 1z238z295z2 <= 0
x238x75x2 - 1z238z75z2 <= 0
x238x141x2 - 1z238z141z2 <= 0
x238x293x2 - 1z238z293z2 <= 0
x238x175x2 - 2z238z175z2 <= 0
x238x62x2 - 1z238z62z2 <= 0
x94x266x3 - 2z94z266z3 <= 0
x94x19x3 - 2z94z19z3 <= 0
x45x12x1 - 1z45z12z1 <= 0
x45x75x1 - 1z45z75z1 <= 0
x45x75x2 - 1z45z75z2 <= 0
x45x7x1 - 2z45z7z1 <= 0
x45x141x1 - 1z45z141z1 <= 0
x45x141x2 - 1z45z141z2 <= 0
x45x293x1 - 1z45z293z1 <= 0
x45x293x2 - 1z45z293z2 <= 0
x45x68x1 - 1z45z68z1 <= 0
x45x175x2 - 2z45z175z2 <= 0
x45x62x2 - 1z45z62z2 <= 0
x45x232x1 - 1z45z232z1 <= 0
x45x111x1 - 2z45z111z1 <= 0
x45x282x1 - 2z45z282z1 <= 0
x45x0x1 <= 1
x45x0x2 <= 1
x230x15x1 - 1z230z15z1 <= 0
x230x7x1 - 2z230z7z1 <= 0
x230x293x1 - 1z230z293z1 <= 0
x230x68x1 - 1z230z68z1 <= 0
x230x232x1 - 1z230z232z1 <= 0
x230x111x1 - 2z230z111z1 <= 0
x230x282x1 - 2z230z282z1 <= 0
x230x0x1 <= 2
x295x15x1 - 1z295z15z1 <= 0
x295x7x1 - 2z295z7z1 <= 0
x295x293x1 - 1z295z293z1 <= 0
x295x293x2 - 1z295z293z2 <= 0
x295x68x1 - 1z295z68z1 <= 0
x295x175x2 - 2z295z175z2 <= 0
x295x232x1 - 1z295z232z1 <= 0
x295x111x1 - 2z295z111z1 <= 0
x295x282x1 - 2z295z282z1 <= 0
x295x0x1 <= 1
x295x0x2 <= 1
x15x7x1 - 2z15z7z1 <= 0
x15x293x1 - 1z15z293z1 <= 0
x15x68x1 - 1z15z68z1 <= 0
x15x68x3 - 1z15z68z3 <= 0
x15x232x1 - 1z15z232z1 <= 0
x15x232x3 - 1z15z232z3 <= 0
x15x111x1 - 2z15z111z1 <= 0
x15x282x1 - 2z15z282z1 <= 0
x15x19x3 - 2z15z19z3 <= 0
x15x0x1 <= 1
x15x0x3 <= 1
x12x293x1 - 1z12z293z1 <= 0
x12x68x1 - 1z12z68z1 <= 0
x12x68x3 - 1z12z68z3 <= 0
x12x62x3 - 1z12z62z3 <= 0
x12x232x1 - 1z12z232z1 <= 0
x12x232x3 - 1z12z232z3 <= 0
x12x111x1 - 2z12z111z1 <= 0
x12x266x3 - 2z12z266z3 <= 0
x12x282x1 - 2z12z282z1 <= 0
x12x19x3 - 2z12z19z3 <= 0
x12x0x1 <= 1
x12x0x3 <= 1
x33x75x1 - 1z33z75z1 <= 0
x33x162x3 - 2z33z162z3 <= 0
x33x141x1 - 1z33z141z1 <= 0
x33x62x3 - 1z33z62z3 <= 0
x33x266x3 - 2z33z266z3 <= 0
x33x282x1 - 2z33z282z1 <= 0
x33x19x3 - 2z33z19z3 <= 0
x33x0x1 <= 1
x33x0x3 <= 1
x150x68x3 - 1z150z68z3 <= 0
x150x232x3 - 1z150z232z3 <= 0
x150x0x3 <= 2
x75x141x1 - 1z75z141z1 <= 0
x75x141x2 - 1z75z141z2 <= 0
x75x62x2 - 1z75z62z2 <= 0
x75x282x1 - 2z75z282z1 <= 0
x75x0x1 <= 1
x75x0x2 <= 1
x7x68x1 - 1z7z68z1 <= 0
x7x232x1 - 1z7z232z1 <= 0
x7x111x1 - 2z7z111z1 <= 0
x7x0x1 <= 2
x162x62x3 - 1z162z62z3 <= 0
x162x266x3 - 2z162z266z3 <= 0
x162x19x3 - 2z162z19z3 <= 0
x162x0x3 <= 2
x141x62x2 - 1z141z62z2 <= 0
x141x282x1 - 2z141z282z1 <= 0
x141x0x1 <= 1
x141x0x2 <= 1
x293x68x1 - 1z293z68z1 <= 0
x293x175x2 - 2z293z175z2 <= 0
x293x232x1 - 1z293z232z1 <= 0
x293x111x1 - 2z293z111z1 <= 0
x293x0x1 <= 1
x293x0x2 <= 1
x68x232x1 - 1z68z232z1 <= 0
x68x232x3 - 1z68z232z3 <= 0
x68x111x1 - 2z68z111z1 <= 0
x68x0x1 <= 1
x68x0x3 <= 1
x175x0x2 <= 2
x62x266x3 - 2z62z266z3 <= 0
x62x19x3 - 2z62z19z3 <= 0
x62x0x2 <= 1
x62x0x3 <= 1
x232x0x1 <= 1
x232x0x3 <= 1
x111x0x1 <= 2
x266x19x3 - 2z266z19z3 <= 0
x266x0x3 <= 2
x282x0x1 <= 2
x19x0x3 <= 2

s45 - 6.00z176z45z1 >= 0
s45 - 6.00z16z45z2 >= 0
s45 - 6.00z88z45z1 >= 0
s45 - 6.00z66z45z1 >= 0
s45 - 6.00z187z45z1 >= 0
s45 - 6.00z187z45z2 >= 0
s45 - 6.00z238z45z2 >= 0
s230 - 6.00z176z230z1 >= 0
s230 - 6.00z88z230z1 >= 0
s230 - 6.00z66z230z1 >= 0
s230 - 6.00z187z230z1 >= 0
s295 - 6.00z176z295z1 >= 0
s295 - 6.00z16z295z2 >= 0
s295 - 6.00z88z295z1 >= 0
s295 - 6.00z66z295z1 >= 0
s295 - 6.00z187z295z1 >= 0
s295 - 6.00z187z295z2 >= 0
s295 - 6.00z238z295z2 >= 0
s15 - 6.00z176z15z1 >= 0
s15 - 6.00z88z15z1 >= 0
s15 - 6.00z66z15z1 >= 0
s15 - 6.00z187z15z1 >= 0
s15 - 6.00z226z15z1 >= 0
s15 - 6.00z226z15z3 >= 0
s15 - 6.00z230z15z1 >= 0
s15 - 6.00z295z15z1 >= 0
s12 - 6.00z176z12z1 >= 0
s12 - 6.00z88z12z1 >= 0
s12 - 6.00z66z12z1 >= 0
s12 - 6.00z187z12z1 >= 0
s12 - 6.00z226z12z1 >= 0
s12 - 6.00z226z12z3 >= 0
s12 - 6.00z45z12z1 >= 0
s33 - 6.00z176z33z1 >= 0
s33 - 6.00z88z33z1 >= 0
s33 - 6.00z66z33z1 >= 0
s33 - 6.00z187z33z1 >= 0
s33 - 6.00z226z33z1 >= 0
s33 - 6.00z226z33z3 >= 0
s150 - 6.00z226z150z3 >= 0
s75 - 6.00z176z75z1 >= 0
s75 - 6.00z16z75z2 >= 0
s75 - 6.00z88z75z1 >= 0
s75 - 6.00z215z75z2 >= 0
s75 - 6.00z66z75z1 >= 0
s75 - 6.00z187z75z1 >= 0
s75 - 6.00z187z75z2 >= 0
s75 - 6.00z226z75z1 >= 0
s75 - 6.00z23z75z1 >= 0
s75 - 6.00z238z75z2 >= 0
s75 - 6.00z45z75z1 >= 0
s75 - 6.00z45z75z2 >= 0
s75 - 6.00z33z75z1 >= 0
s7 - 6.00z176z7z1 >= 0
s7 - 6.00z88z7z1 >= 0
s7 - 6.00z66z7z1 >= 0
s7 - 6.00z187z7z1 >= 0
s7 - 6.00z226z7z1 >= 0
s7 - 6.00z45z7z1 >= 0
s7 - 6.00z230z7z1 >= 0
s7 - 6.00z295z7z1 >= 0
s7 - 6.00z15z7z1 >= 0
s162 - 6.00z226z162z3 >= 0
s162 - 6.00z23z162z3 >= 0
s162 - 6.00z33z162z3 >= 0
s141 - 6.00z176z141z1 >= 0
s141 - 6.00z16z141z2 >= 0
s141 - 6.00z88z141z1 >= 0
s141 - 6.00z215z141z2 >= 0
s141 - 6.00z66z141z1 >= 0
s141 - 6.00z187z141z1 >= 0
s141 - 6.00z187z141z2 >= 0
s141 - 6.00z226z141z1 >= 0
s141 - 6.00z23z141z1 >= 0
s141 - 6.00z238z141z2 >= 0
s141 - 6.00z45z141z1 >= 0
s141 - 6.00z45z141z2 >= 0
s141 - 6.00z33z141z1 >= 0
s141 - 6.00z75z141z1 >= 0
s141 - 6.00z75z141z2 >= 0
s293 - 6.00z176z293z1 >= 0
s293 - 6.00z16z293z2 >= 0
s293 - 6.00z88z293z1 >= 0
s293 - 6.00z215z293z2 >= 0
s293 - 6.00z66z293z1 >= 0
s293 - 6.00z187z293z1 >= 0
s293 - 6.00z187z293z2 >= 0
s293 - 6.00z226z293z1 >= 0
s293 - 6.00z238z293z2 >= 0
s293 - 6.00z45z293z1 >= 0
s293 - 6.00z45z293z2 >= 0
s293 - 6.00z230z293z1 >= 0
s293 - 6.00z295z293z1 >= 0
s293 - 6.00z295z293z2 >= 0
s293 - 6.00z15z293z1 >= 0
s293 - 6.00z12z293z1 >= 0
s68 - 6.00z176z68z1 >= 0
s68 - 6.00z88z68z1 >= 0
s68 - 6.00z66z68z1 >= 0
s68 - 6.00z187z68z1 >= 0
s68 - 6.00z226z68z1 >= 0
s68 - 6.00z226z68z3 >= 0
s68 - 6.00z45z68z1 >= 0
s68 - 6.00z230z68z1 >= 0
s68 - 6.00z295z68z1 >= 0
s68 - 6.00z15z68z1 >= 0
s68 - 6.00z15z68z3 >= 0
s68 - 6.00z12z68z1 >= 0
s68 - 6.00z12z68z3 >= 0
s68 - 6.00z150z68z3 >= 0
s68 - 6.00z7z68z1 >= 0
s68 - 6.00z293z68z1 >= 0
s175 - 6.00z16z175z2 >= 0
s175 - 6.00z215z175z2 >= 0
s175 - 6.00z187z175z2 >= 0
s175 - 6.00z238z175z2 >= 0
s175 - 6.00z45z175z2 >= 0
s175 - 6.00z295z175z2 >= 0
s175 - 6.00z293z175z2 >= 0
s62 - 6.00z16z62z2 >= 0
s62 - 6.00z215z62z2 >= 0
s62 - 6.00z251z62z3 >= 0
s62 - 6.00z187z62z2 >= 0
s62 - 6.00z226z62z3 >= 0
s62 - 6.00z23z62z3 >= 0
s62 - 6.00z238z62z2 >= 0
s62 - 6.00z45z62z2 >= 0
s62 - 6.00z12z62z3 >= 0
s62 - 6.00z33z62z3 >= 0
s62 - 6.00z75z62z2 >= 0
s62 - 6.00z162z62z3 >= 0
s62 - 6.00z141z62z2 >= 0
s232 - 6.00z176z232z1 >= 0
s232 - 6.00z88z232z1 >= 0
s232 - 6.00z66z232z1 >= 0
s232 - 6.00z187z232z1 >= 0
s232 - 6.00z226z232z1 >= 0
s232 - 6.00z226z232z3 >= 0
s232 - 6.00z45z232z1 >= 0
s232 - 6.00z230z232z1 >= 0
s232 - 6.00z295z232z1 >= 0
s232 - 6.00z15z232z1 >= 0
s232 - 6.00z15z232z3 >= 0
s232 - 6.00z12z232z1 >= 0
s232 - 6.00z12z232z3 >= 0
s232 - 6.00z150z232z3 >= 0
s232 - 6.00z7z232z1 >= 0
s232 - 6.00z293z232z1 >= 0
s232 - 6.00z68z232z1 >= 0
s232 - 6.00z68z232z3 >= 0
s111 - 6.00z176z111z1 >= 0
s111 - 6.00z88z111z1 >= 0
s111 - 6.00z66z111z1 >= 0
s111 - 6.00z187z111z1 >= 0
s111 - 6.00z226z111z1 >= 0
s111 - 6.00z45z111z1 >= 0
s111 - 6.00z230z111z1 >= 0
s111 - 6.00z295z111z1 >= 0
s111 - 6.00z15z111z1 >= 0
s111 - 6.00z12z111z1 >= 0
s111 - 6.00z7z111z1 >= 0
s111 - 6.00z293z111z1 >= 0
s111 - 6.00z68z111z1 >= 0
s266 - 6.00z251z266z3 >= 0
s266 - 6.00z226z266z3 >= 0
s266 - 6.00z23z266z3 >= 0
s266 - 6.00z94z266z3 >= 0
s266 - 6.00z12z266z3 >= 0
s266 - 6.00z33z266z3 >= 0
s266 - 6.00z162z266z3 >= 0
s266 - 6.00z62z266z3 >= 0
s282 - 6.00z176z282z1 >= 0
s282 - 6.00z88z282z1 >= 0
s282 - 6.00z66z282z1 >= 0
s282 - 6.00z251z282z1 >= 0
s282 - 6.00z187z282z1 >= 0
s282 - 6.00z226z282z1 >= 0
s282 - 6.00z23z282z1 >= 0
s282 - 6.00z45z282z1 >= 0
s282 - 6.00z230z282z1 >= 0
s282 - 6.00z295z282z1 >= 0
s282 - 6.00z15z282z1 >= 0
s282 - 6.00z12z282z1 >= 0
s282 - 6.00z33z282z1 >= 0
s282 - 6.00z75z282z1 >= 0
s282 - 6.00z141z282z1 >= 0
s19 - 6.00z251z19z3 >= 0
s19 - 6.00z226z19z3 >= 0
s19 - 6.00z23z19z3 >= 0
s19 - 6.00z94z19z3 >= 0
s19 - 6.00z15z19z3 >= 0
s19 - 6.00z12z19z3 >= 0
s19 - 6.00z33z19z3 >= 0
s19 - 6.00z162z19z3 >= 0
s19 - 6.00z62z19z3 >= 0
s19 - 6.00z266z19z3 >= 0

Bounds
s176 = 5.275933
s16 = 6.250124
s88 = 6.217573
s215 = 6.859026
s66 = 6.288886
s251 = 6.930000
s187 = 6.298885
s226 = 6.672612
s23 = 7.183993
s238 = 6.766606
s77 = 7.482223
s94 = 7.436048
s186 = 7.620182
s129 = 7.797140
s145 = 7.792659
s128 = 7.933805
7.130000 <= s45 <= 8.130000
7.160000 <= s230 <= 8.160000
7.180000 <= s295 <= 8.180000
7.220000 <= s15 <= 8.220000
7.250000 <= s12 <= 8.250000
7.290000 <= s33 <= 8.290000
7.300000 <= s150 <= 8.300000
7.330000 <= s75 <= 8.330000
7.350000 <= s7 <= 8.350000
7.360000 <= s162 <= 8.360000
7.380000 <= s141 <= 8.380000
7.400000 <= s293 <= 8.400000
7.430000 <= s68 <= 8.430000
7.470000 <= s175 <= 8.470000
7.490000 <= s62 <= 8.490000
7.500000 <= s232 <= 8.500000
7.510000 <= s111 <= 8.510000
7.560000 <= s266 <= 8.560000
7.580000 <= s282 <= 8.580000
7.590000 <= s19 <= 8.590000

General
x176x45x1 x176x230x1 x176x295x1 x176x15x1 x176x12x1 x176x33x1 x176x75x1 x176x7x1 x176x141x1 x176x293x1 x176x68x1 x176x232x1 x176x111x1 x176x282x1 
x16x45x2 x16x295x2 x16x75x2 x16x141x2 x16x293x2 x16x175x2 x16x62x2 
x88x45x1 x88x230x1 x88x295x1 x88x15x1 x88x12x1 x88x33x1 x88x75x1 x88x7x1 x88x141x1 x88x293x1 x88x68x1 x88x232x1 x88x111x1 x88x282x1 
x215x75x2 x215x141x2 x215x293x2 x215x175x2 x215x62x2 
x66x45x1 x66x230x1 x66x295x1 x66x15x1 x66x12x1 x66x33x1 x66x75x1 x66x7x1 x66x141x1 x66x293x1 x66x68x1 x66x232x1 x66x111x1 x66x282x1 
x251x62x3 x251x266x3 x251x282x1 x251x19x3 
x187x45x1 x187x45x2 x187x230x1 x187x295x1 x187x295x2 x187x15x1 x187x12x1 x187x33x1 x187x75x1 x187x75x2 x187x7x1 x187x141x1 x187x141x2 x187x293x1 x187x293x2 x187x68x1 x187x175x2 x187x62x2 x187x232x1 x187x111x1 x187x282x1 
x226x15x1 x226x15x3 x226x12x1 x226x12x3 x226x33x1 x226x33x3 x226x150x3 x226x75x1 x226x7x1 x226x162x3 x226x141x1 x226x293x1 x226x68x1 x226x68x3 x226x62x3 x226x232x1 x226x232x3 x226x111x1 x226x266x3 x226x282x1 x226x19x3 
x23x75x1 x23x162x3 x23x141x1 x23x62x3 x23x266x3 x23x282x1 x23x19x3 
x238x45x2 x238x295x2 x238x75x2 x238x141x2 x238x293x2 x238x175x2 x238x62x2 

x94x266x3 x94x19x3 




x45x12x1 x45x75x1 x45x75x2 x45x7x1 x45x141x1 x45x141x2 x45x293x1 x45x293x2 x45x68x1 x45x175x2 x45x62x2 x45x232x1 x45x111x1 x45x282x1 x45x0x1 x45x0x2 
x230x15x1 x230x7x1 x230x293x1 x230x68x1 x230x232x1 x230x111x1 x230x282x1 x230x0x1 
x295x15x1 x295x7x1 x295x293x1 x295x293x2 x295x68x1 x295x175x2 x295x232x1 x295x111x1 x295x282x1 x295x0x1 x295x0x2 
x15x7x1 x15x293x1 x15x68x1 x15x68x3 x15x232x1 x15x232x3 x15x111x1 x15x282x1 x15x19x3 x15x0x1 x15x0x3 
x12x293x1 x12x68x1 x12x68x3 x12x62x3 x12x232x1 x12x232x3 x12x111x1 x12x266x3 x12x282x1 x12x19x3 x12x0x1 x12x0x3 
x33x75x1 x33x162x3 x33x141x1 x33x62x3 x33x266x3 x33x282x1 x33x19x3 x33x0x1 x33x0x3 
x150x68x3 x150x232x3 x150x0x3 
x75x141x1 x75x141x2 x75x62x2 x75x282x1 x75x0x1 x75x0x2 
x7x68x1 x7x232x1 x7x111x1 x7x0x1 
x162x62x3 x162x266x3 x162x19x3 x162x0x3 
x141x62x2 x141x282x1 x141x0x1 x141x0x2 
x293x68x1 x293x175x2 x293x232x1 x293x111x1 x293x0x1 x293x0x2 
x68x232x1 x68x232x3 x68x111x1 x68x0x1 x68x0x3 
x175x0x2 
x62x266x3 x62x19x3 x62x0x2 x62x0x3 
x232x0x1 x232x0x3 
x111x0x1 
x266x19x3 x266x0x3 
x282x0x1 
x19x0x3 

Binaries
y45 y230 y295 y15 y12 y33 y150 y75 y7 y162 y141 y293 y68 y175 y62 y232 y111 y266 y282 y19 
z176z45z1 z176z230z1 z176z295z1 z176z15z1 z176z12z1 z176z33z1 z176z75z1 z176z7z1 z176z141z1 z176z293z1 z176z68z1 z176z232z1 z176z111z1 z176z282z1 
z16z45z2 z16z295z2 z16z75z2 z16z141z2 z16z293z2 z16z175z2 z16z62z2 
z88z45z1 z88z230z1 z88z295z1 z88z15z1 z88z12z1 z88z33z1 z88z75z1 z88z7z1 z88z141z1 z88z293z1 z88z68z1 z88z232z1 z88z111z1 z88z282z1 
z215z75z2 z215z141z2 z215z293z2 z215z175z2 z215z62z2 
z66z45z1 z66z230z1 z66z295z1 z66z15z1 z66z12z1 z66z33z1 z66z75z1 z66z7z1 z66z141z1 z66z293z1 z66z68z1 z66z232z1 z66z111z1 z66z282z1 
z251z62z3 z251z266z3 z251z282z1 z251z19z3 
z187z45z1 z187z45z2 z187z230z1 z187z295z1 z187z295z2 z187z15z1 z187z12z1 z187z33z1 z187z75z1 z187z75z2 z187z7z1 z187z141z1 z187z141z2 z187z293z1 z187z293z2 z187z68z1 z187z175z2 z187z62z2 z187z232z1 z187z111z1 z187z282z1 
z226z15z1 z226z15z3 z226z12z1 z226z12z3 z226z33z1 z226z33z3 z226z150z3 z226z75z1 z226z7z1 z226z162z3 z226z141z1 z226z293z1 z226z68z1 z226z68z3 z226z62z3 z226z232z1 z226z232z3 z226z111z1 z226z266z3 z226z282z1 z226z19z3 
z23z75z1 z23z162z3 z23z141z1 z23z62z3 z23z266z3 z23z282z1 z23z19z3 
z238z45z2 z238z295z2 z238z75z2 z238z141z2 z238z293z2 z238z175z2 z238z62z2 

z94z266z3 z94z19z3 




z45z12z1 z45z75z1 z45z75z2 z45z7z1 z45z141z1 z45z141z2 z45z293z1 z45z293z2 z45z68z1 z45z175z2 z45z62z2 z45z232z1 z45z111z1 z45z282z1 
z230z15z1 z230z7z1 z230z293z1 z230z68z1 z230z232z1 z230z111z1 z230z282z1 
z295z15z1 z295z7z1 z295z293z1 z295z293z2 z295z68z1 z295z175z2 z295z232z1 z295z111z1 z295z282z1 
z15z7z1 z15z293z1 z15z68z1 z15z68z3 z15z232z1 z15z232z3 z15z111z1 z15z282z1 z15z19z3 
z12z293z1 z12z68z1 z12z68z3 z12z62z3 z12z232z1 z12z232z3 z12z111z1 z12z266z3 z12z282z1 z12z19z3 
z33z75z1 z33z162z3 z33z141z1 z33z62z3 z33z266z3 z33z282z1 z33z19z3 
z150z68z3 z150z232z3 
z75z141z1 z75z141z2 z75z62z2 z75z282z1 
z7z68z1 z7z232z1 z7z111z1 
z162z62z3 z162z266z3 z162z19z3 
z141z62z2 z141z282z1 
z293z68z1 z293z175z2 z293z232z1 z293z111z1 
z68z232z1 z68z232z3 z68z111z1 

z62z266z3 z62z19z3 


z266z19z3 



End